100
128
29
60
53
52
50
10
34
14
25
41
45
23
2
18
6
28
22
53
14
26
58
1
30
12
18
33
56
63
62
15
49
22
60
40
54
26
37
45
12
23
42
25
26
26
14
32
11
24
59
38
20
25
35
25
4
18
21
53
49
23
47
47
18
23
15
45
3
56
33
28
15
17
22
52
17
38
21
5
34
5
64
30
4
38
20
31
45
4
54
4
62
22
29
2
7
44
55
17
22
56